NAME : X_30_seed_123_id_15
TYPE : CVRP
DIMENSION : 237
EDGE_WEIGHT_TYPE : EUC_2D
CAPACITY : 18
NODE_COORD_SECTION
1	0	0
2	873	802
3	991	183
4	294	664
5	967	449
6	383	705
7	92	273
8	570	886
9	371	94
10	552	681
11	119	963
12	105	842
13	104	524
14	764	306
15	280	30
16	641	129
17	77	900
18	379	74
19	486	974
20	619	752
21	734	502
22	927	203
23	641	543
24	342	377
25	242	596
26	192	555
27	479	821
28	610	807
29	992	988
30	756	329
31	734	930
32	661	116
33	792	21
34	404	233
35	840	83
36	836	573
37	393	283
38	511	831
39	236	181
40	332	519
41	807	44
42	594	954
43	662	591
44	1	598
45	906	60
46	261	669
47	964	714
48	629	836
49	623	431
50	214	223
51	880	70
52	780	593
53	777	214
54	343	362
55	824	195
56	725	508
57	134	883
58	748	583
59	366	38
60	306	251
61	862	400
62	914	47
63	235	903
64	475	245
65	226	622
66	849	794
67	372	544
68	618	516
69	606	727
70	347	709
71	979	152
72	238	564
73	158	981
74	166	516
75	720	685
76	897	102
77	703	490
78	582	919
79	43	306
80	536	530
81	773	727
82	16	999
83	909	480
84	454	19
85	336	330
86	711	760
87	205	418
88	659	161
89	691	656
90	977	353
91	347	978
92	86	636
93	581	772
94	350	838
95	135	829
96	702	388
97	353	563
98	333	413
99	829	251
100	841	351
101	525	73
102	632	182
103	650	794
104	514	173
105	523	236
106	973	372
107	12	235
108	36	900
109	951	446
110	791	942
111	927	932
112	5	440
113	237	911
114	991	198
115	168	638
116	631	327
117	387	287
118	443	306
119	792	391
120	988	843
121	531	107
122	35	327
123	360	951
124	149	676
125	507	184
126	982	570
127	274	836
128	665	611
129	312	192
130	520	544
131	158	449
132	462	573
133	52	591
134	654	398
135	249	542
136	685	603
137	247	643
138	922	528
139	279	494
140	120	257
141	359	372
142	17	450
143	559	624
144	194	575
145	513	368
146	995	276
147	164	198
148	471	86
149	766	899
150	301	641
151	383	873
152	235	512
153	886	853
154	686	124
155	98	553
156	780	19
157	589	453
158	425	574
159	504	595
160	413	593
161	768	457
162	63	992
163	397	409
164	445	138
165	676	795
166	742	642
167	432	840
168	927	144
169	417	502
170	942	761
171	158	610
172	8	449
173	713	921
174	209	239
175	624	350
176	783	537
177	971	616
178	456	182
179	566	157
180	281	686
181	869	762
182	750	638
183	117	305
184	313	392
185	810	840
186	354	522
187	577	349
188	767	356
189	242	41
190	306	944
191	308	245
192	956	857
193	889	312
194	744	203
195	937	278
196	511	288
197	122	750
198	806	185
199	549	657
200	472	992
201	747	349
202	945	423
203	842	965
204	105	119
205	329	194
206	185	685
207	475	615
208	813	354
209	193	16
210	835	680
211	755	890
212	826	610
213	239	266
214	308	127
215	162	645
216	258	680
217	370	778
218	595	304
219	69	444
220	140	512
221	664	81
222	815	376
223	403	350
224	348	955
225	837	770
226	216	504
227	101	25
228	389	445
229	592	31
230	478	307
231	975	386
232	179	891
233	257	521
234	179	305
235	202	138
236	36	391
237	67	33
DEMAND_SECTION
1	0
2	1
3	1
4	1
5	1
6	1
7	1
8	1
9	1
10	1
11	1
12	1
13	1
14	1
15	1
16	1
17	1
18	1
19	1
20	1
21	1
22	1
23	1
24	1
25	1
26	1
27	1
28	1
29	1
30	1
31	1
32	1
33	1
34	1
35	1
36	1
37	1
38	1
39	1
40	1
41	1
42	1
43	1
44	1
45	1
46	1
47	1
48	1
49	1
50	1
51	1
52	1
53	1
54	1
55	1
56	1
57	1
58	1
59	1
60	1
61	1
62	1
63	1
64	1
65	1
66	1
67	1
68	1
69	1
70	1
71	1
72	1
73	1
74	1
75	1
76	1
77	1
78	1
79	1
80	1
81	1
82	1
83	1
84	1
85	1
86	1
87	1
88	1
89	1
90	1
91	1
92	1
93	1
94	1
95	1
96	1
97	1
98	1
99	1
100	1
101	1
102	1
103	1
104	1
105	1
106	1
107	1
108	1
109	1
110	1
111	1
112	1
113	1
114	1
115	1
116	1
117	1
118	1
119	1
120	1
121	1
122	1
123	1
124	1
125	1
126	1
127	1
128	1
129	1
130	1
131	1
132	1
133	1
134	1
135	1
136	1
137	1
138	1
139	1
140	1
141	1
142	1
143	1
144	1
145	1
146	1
147	1
148	1
149	1
150	1
151	1
152	1
153	1
154	1
155	1
156	1
157	1
158	1
159	1
160	1
161	1
162	1
163	1
164	1
165	1
166	1
167	1
168	1
169	1
170	1
171	1
172	1
173	1
174	1
175	1
176	1
177	1
178	1
179	1
180	1
181	1
182	1
183	1
184	1
185	1
186	1
187	1
188	1
189	1
190	1
191	1
192	1
193	1
194	1
195	1
196	1
197	1
198	1
199	1
200	1
201	1
202	1
203	1
204	1
205	1
206	1
207	1
208	1
209	1
210	1
211	1
212	1
213	1
214	1
215	1
216	1
217	1
218	1
219	1
220	1
221	1
222	1
223	1
224	1
225	1
226	1
227	1
228	1
229	1
230	1
231	1
232	1
233	1
234	1
235	1
236	1
237	1
DEPOT_SECTION
1
-1
EOF
